(set-info :smt-lib-version 2.6)
(set-logic UF)
(set-info :source |Benchmarks from the paper: "Extending Sledgehammer with SMT Solvers" by Jasmin Blanchette, Sascha Bohme, and Lawrence C. Paulson, CADE 2011.  Translated to SMT2 by Andrew Reynolds and Morgan Deters.|)
(set-info :category "industrial")
(set-info :status unknown)
(declare-sort S1 0)
(declare-sort S2 0)
(declare-sort S3 0)
(declare-sort S4 0)
(declare-sort S5 0)
(declare-sort S6 0)
(declare-sort S7 0)
(declare-sort S8 0)
(declare-sort S9 0)
(declare-sort S10 0)
(declare-sort S11 0)
(declare-sort S12 0)
(declare-sort S13 0)
(declare-sort S14 0)
(declare-sort S15 0)
(declare-sort S16 0)
(declare-sort S17 0)
(declare-sort S18 0)
(declare-sort S19 0)
(declare-sort S20 0)
(declare-sort S21 0)
(declare-sort S22 0)
(declare-sort S23 0)
(declare-sort S24 0)
(declare-sort S25 0)
(declare-sort S26 0)
(declare-sort S27 0)
(declare-sort S28 0)
(declare-sort S29 0)
(declare-sort S30 0)
(declare-sort S31 0)
(declare-sort S32 0)
(declare-sort S33 0)
(declare-sort S34 0)
(declare-sort S35 0)
(declare-sort S36 0)
(declare-sort S37 0)
(declare-sort S38 0)
(declare-sort S39 0)
(declare-sort S40 0)
(declare-sort S41 0)
(declare-sort S42 0)
(declare-sort S43 0)
(declare-sort S44 0)
(declare-sort S45 0)
(declare-sort S46 0)
(declare-sort S47 0)
(declare-sort S48 0)
(declare-fun f1 () S1)
(declare-fun f2 () S1)
(declare-fun f3 (S3 S2) S2)
(declare-fun f4 () S3)
(declare-fun f5 (S4 S5) S2)
(declare-fun f6 (S6 S2) S4)
(declare-fun f7 () S6)
(declare-fun f8 () S5)
(declare-fun f9 (S7 S5) S3)
(declare-fun f10 () S7)
(declare-fun f11 (S8 S2) S7)
(declare-fun f12 () S8)
(declare-fun f13 (S9 S2) S6)
(declare-fun f14 () S9)
(declare-fun f15 (S10 S2) S1)
(declare-fun f16 (S11 S10) S10)
(declare-fun f17 (S10) S11)
(declare-fun f18 (S16 S15) S1)
(declare-fun f19 (S17 S14) S16)
(declare-fun f20 (S12 S2 S13) S17)
(declare-fun f21 (S12 S2 S14) S1)
(declare-fun f22 (S12 S13 S15) S1)
(declare-fun f23 () S3)
(declare-fun f24 () S10)
(declare-fun f25 () S3)
(declare-fun f26 () S2)
(declare-fun f27 () S2)
(declare-fun f28 () S5)
(declare-fun f29 () S12)
(declare-fun f30 () S14)
(declare-fun f31 (S18 S14) S12)
(declare-fun f32 (S19 S5) S18)
(declare-fun f33 (S20 S12) S19)
(declare-fun f34 () S20)
(declare-fun f35 () S14)
(declare-fun f36 () S2)
(declare-fun f37 () S2)
(declare-fun f38 (S21 S14) S14)
(declare-fun f39 (S22 S14) S21)
(declare-fun f40 () S22)
(declare-fun f41 () S4)
(declare-fun f42 () S12)
(declare-fun f43 () S5)
(declare-fun f44 () S14)
(declare-fun f45 (S12 S5) S14)
(declare-fun f46 (S23 S2) S3)
(declare-fun f47 () S23)
(declare-fun f48 () S12)
(declare-fun f49 (S24 S5) S1)
(declare-fun f50 (S5) S24)
(declare-fun f51 (S25 S14) S5)
(declare-fun f52 () S25)
(declare-fun f53 (S26 S5) S24)
(declare-fun f54 () S25)
(declare-fun f55 (S27 S13) S2)
(declare-fun f56 (S28 S2) S27)
(declare-fun f57 (S29 S23) S28)
(declare-fun f58 () S29)
(declare-fun f59 (S30 S2) S10)
(declare-fun f60 () S30)
(declare-fun f61 (S31 S2) S5)
(declare-fun f62 () S31)
(declare-fun f63 () S9)
(declare-fun f64 (S10 S13) S1)
(declare-fun f65 (S32 S5) S6)
(declare-fun f66 () S32)
(declare-fun f67 (S30 S13 S13) S1)
(declare-fun f68 (S33 S13) S13)
(declare-fun f69 (S34 S2) S33)
(declare-fun f70 () S34)
(declare-fun f71 (S35 S3) S33)
(declare-fun f72 () S35)
(declare-fun f73 (S38 S36) S36)
(declare-fun f74 (S39 S37) S38)
(declare-fun f75 () S39)
(declare-fun f76 (S41 S37) S37)
(declare-fun f77 (S42 S40) S41)
(declare-fun f78 () S42)
(declare-fun f79 (S43 S36 S36) S1)
(declare-fun f80 (S44 S37) S1)
(declare-fun f81 (S43 S37) S44)
(declare-fun f82 (S45 S37) S44)
(declare-fun f83 (S46 S40) S1)
(declare-fun f84 (S45 S40) S46)
(declare-fun f85 (S1 S17 S15) S1)
(declare-fun f86 (S47 S15) S21)
(declare-fun f87 (S48 S22) S47)
(declare-fun f88 () S48)
(assert (not (= f1 f2)))
(assert (forall ((?v0 S2)) (= (f3 f4 ?v0) (f5 (f6 f7 ?v0) f8))))
(assert (forall ((?v0 S5) (?v1 S2)) (= (f3 (f9 f10 ?v0) ?v1) (f5 (f6 f7 ?v1) ?v0))))
(assert (forall ((?v0 S2) (?v1 S5) (?v2 S2)) (= (f3 (f9 (f11 f12 ?v0) ?v1) ?v2) (f5 (f6 (f13 f14 ?v2) ?v0) ?v1))))
(assert (forall ((?v0 S10) (?v1 S10) (?v2 S2)) (= (= (f15 (f16 (f17 ?v0) ?v1) ?v2) f1) (and (= (f15 ?v0 ?v2) f1) (= (f15 ?v1 ?v2) f1)))))
(assert (forall ((?v0 S12) (?v1 S2) (?v2 S13) (?v3 S14) (?v4 S15)) (= (= (f18 (f19 (f20 ?v0 ?v1 ?v2) ?v3) ?v4) f1) (and (= (f21 ?v0 ?v1 ?v3) f1) (= (f22 ?v0 ?v2 ?v4) f1)))))
(assert (forall ((?v0 S2)) (= (f3 f23 ?v0) ?v0)))
(assert (not (= (f15 f24 (f5 (f6 (f13 f14 (f3 f25 f26)) f27) f28)) f1)))
(assert (= (f15 f24 f27) f1))
(assert (= (f21 f29 f27 f30) f1))
(assert (= (f21 (f31 (f32 (f33 f34 f29) f28) f30) (f3 f25 f26) f35) f1))
(assert (forall ((?v0 S12) (?v1 S5) (?v2 S14) (?v3 S2)) (=> (= (f21 (f31 (f32 (f33 f34 ?v0) ?v1) f30) f26 ?v2) f1) (=> (= (f15 f24 ?v3) f1) (=> (= (f21 ?v0 ?v3 f30) f1) (= (f15 f24 (f5 (f6 (f13 f14 f26) ?v3) ?v1)) f1))))))
(assert (= (f15 f24 f36) f1))
(assert (= (f15 f24 f37) f1))
(assert (= (f15 f24 f27) f1))
(assert (= (f21 f29 f27 f30) f1))
(assert (= (f15 f24 f26) f1))
(assert (= (f21 (f31 (f32 (f33 f34 f29) f28) f30) (f3 f25 f26) f35) f1))
(assert (forall ((?v0 S2)) (=> (= (f15 f24 ?v0) f1) (= (f15 f24 (f3 f25 ?v0)) f1))))
(assert (forall ((?v0 S12) (?v1 S5) (?v2 S14) (?v3 S2)) (=> (= (f21 (f31 (f32 (f33 f34 ?v0) ?v1) f30) f26 ?v2) f1) (=> (= (f15 f24 ?v3) f1) (=> (= (f21 ?v0 ?v3 f30) f1) (= (f15 f24 (f5 (f6 (f13 f14 f26) ?v3) ?v1)) f1))))))
(assert (forall ((?v0 S2) (?v1 S2)) (= (= (f3 f25 ?v0) (f3 f25 ?v1)) (= ?v0 ?v1))))
(assert (forall ((?v0 S14) (?v1 S14) (?v2 S2) (?v3 S12) (?v4 S5) (?v5 S14) (?v6 S2)) (=> (= f30 (f38 (f39 f40 ?v0) ?v1)) (=> (= (f15 f24 ?v2) f1) (=> (= (f21 (f31 (f32 (f33 f34 ?v3) ?v4) ?v0) ?v2 ?v5) f1) (=> (= (f15 f24 ?v6) f1) (=> (= (f21 ?v3 ?v6 ?v0) f1) (= (f15 f24 (f5 (f6 (f13 f14 ?v2) ?v6) ?v4)) f1))))))))
(assert (forall ((?v0 S14) (?v1 S14) (?v2 S2) (?v3 S12) (?v4 S5) (?v5 S14) (?v6 S2)) (=> (= f30 (f38 (f39 f40 ?v0) ?v1)) (=> (= (f15 f24 ?v2) f1) (=> (= (f21 (f31 (f32 (f33 f34 ?v3) ?v4) ?v1) ?v2 ?v5) f1) (=> (= (f15 f24 ?v6) f1) (=> (= (f21 ?v3 ?v6 ?v1) f1) (= (f15 f24 (f5 (f6 (f13 f14 ?v2) ?v6) ?v4)) f1))))))))
(assert (forall ((?v0 S2) (?v1 S5) (?v2 S5)) (=> (= (f15 f24 ?v0) f1) (= (f15 f24 (f5 (f6 (f13 f14 ?v0) (f5 f41 ?v1)) ?v2)) f1))))
(assert (forall ((?v0 S2) (?v1 S5)) (=> (= (f15 f24 ?v0) f1) (= (f15 f24 (f5 (f6 f7 ?v0) ?v1)) f1))))
(assert (forall ((?v0 S5)) (= (f15 f24 (f5 f41 ?v0)) f1)))
(assert (forall ((?v0 S12) (?v1 S2) (?v2 S14) (?v3 S12) (?v4 S2) (?v5 S14) (?v6 S5)) (=> (= (f21 ?v0 ?v1 ?v2) f1) (=> (= (f21 ?v3 ?v4 ?v5) f1) (=> (= ?v0 (f31 (f32 (f33 f34 ?v3) ?v6) ?v5)) (= (f21 ?v3 (f5 (f6 (f13 f14 ?v1) ?v4) ?v6) ?v2) f1))))))
(assert (= (f21 (f31 (f32 (f33 f34 f42) f43) f30) (f3 f25 f26) f44) f1))
(assert (= (f21 f42 f37 f30) f1))
(assert (forall ((?v0 S12) (?v1 S5) (?v2 S14)) (=> (= (f45 ?v0 ?v1) ?v2) (= (f21 ?v0 (f5 f41 ?v1) ?v2) f1))))
(assert (forall ((?v0 S12) (?v1 S5) (?v2 S14)) (=> (= (f21 ?v0 (f5 f41 ?v1) ?v2) f1) (=> (=> (= (f45 ?v0 ?v1) ?v2) false) false))))
(assert (forall ((?v0 S12) (?v1 S2) (?v2 S14) (?v3 S5) (?v4 S14)) (=> (= (f21 ?v0 ?v1 ?v2) f1) (= (f21 (f31 (f32 (f33 f34 ?v0) ?v3) ?v4) (f5 (f6 f7 ?v1) ?v3) ?v2) f1))))
(assert (forall ((?v0 S5) (?v1 S5)) (= (= (f5 f41 ?v0) (f5 f41 ?v1)) (= ?v0 ?v1))))
(assert (forall ((?v0 S14) (?v1 S14) (?v2 S14) (?v3 S14)) (= (= (f38 (f39 f40 ?v0) ?v1) (f38 (f39 f40 ?v2) ?v3)) (and (= ?v0 ?v2) (= ?v1 ?v3)))))
(assert (forall ((?v0 S5) (?v1 S5) (?v2 S12) (?v3 S14)) (=> (= ?v0 ?v1) (= (f45 (f31 (f32 (f33 f34 ?v2) ?v0) ?v3) ?v1) ?v3))))
(assert (forall ((?v0 S5) (?v1 S2)) (not (= (f5 f41 ?v0) (f3 f25 ?v1)))))
(assert (forall ((?v0 S2) (?v1 S5)) (not (= (f3 f25 ?v0) (f5 f41 ?v1)))))
(assert (forall ((?v0 S5) (?v1 S2)) (= (f5 (f6 (f13 f14 (f5 f41 ?v0)) ?v1) ?v0) ?v1)))
(assert (forall ((?v0 S2) (?v1 S5) (?v2 S2)) (= (f5 (f6 (f13 f14 (f5 (f6 f7 ?v0) ?v1)) ?v2) ?v1) ?v0)))
(assert (forall ((?v0 S12) (?v1 S14) (?v2 S2) (?v3 S14)) (=> (= (f21 (f31 (f32 (f33 f34 ?v0) f8) ?v1) ?v2 ?v3) f1) (= (f21 ?v0 (f3 f25 ?v2) (f38 (f39 f40 ?v1) ?v3)) f1))))
(assert (forall ((?v0 S12) (?v1 S2) (?v2 S14)) (=> (= (f21 ?v0 (f3 f25 ?v1) ?v2) f1) (=> (forall ((?v3 S14) (?v4 S14)) (=> (= ?v2 (f38 (f39 f40 ?v3) ?v4)) (=> (= (f21 (f31 (f32 (f33 f34 ?v0) f8) ?v3) ?v1 ?v4) f1) false))) false))))
(assert (forall ((?v0 S12) (?v1 S2) (?v2 S14)) (=> (= (f21 ?v0 (f3 f25 ?v1) ?v2) f1) (=> (forall ((?v3 S14) (?v4 S14)) (=> (= (f21 (f31 (f32 (f33 f34 ?v0) f8) ?v3) ?v1 ?v4) f1) false)) false))))
(assert (forall ((?v0 S12) (?v1 S2) (?v2 S14) (?v3 S14) (?v4 S2)) (=> (= (f21 ?v0 ?v1 (f38 (f39 f40 ?v2) ?v3)) f1) (=> (= (f21 ?v0 ?v4 ?v2) f1) (= (f21 ?v0 (f3 (f46 f47 ?v1) ?v4) ?v3) f1)))))
(assert (forall ((?v0 S5) (?v1 S14) (?v2 S14)) (not (= (f45 f48 ?v0) (f38 (f39 f40 ?v1) ?v2)))))
(assert (forall ((?v0 S14) (?v1 S14) (?v2 S5)) (not (= (f38 (f39 f40 ?v0) ?v1) (f45 f48 ?v2)))))
(assert (forall ((?v0 S5) (?v1 S5) (?v2 S2)) (let ((?v_0 (f5 f41 ?v0))) (=> (= (f49 (f50 ?v0) ?v1) f1) (= (f5 (f6 (f13 f14 ?v_0) ?v2) ?v1) ?v_0)))))
(assert (forall ((?v0 S2) (?v1 S5)) (=> (= (f15 f24 ?v0) f1) (= (f15 f24 (f3 (f46 f47 ?v0) (f5 f41 ?v1))) f1))))
(assert (forall ((?v0 S2) (?v1 S2) (?v2 S2) (?v3 S2)) (= (= (f3 (f46 f47 ?v0) ?v1) (f3 (f46 f47 ?v2) ?v3)) (and (= ?v0 ?v2) (= ?v1 ?v3)))))
(assert (forall ((?v0 S5) (?v1 S5)) (= (= (f45 f48 ?v0) (f45 f48 ?v1)) (= ?v0 ?v1))))
(assert (forall ((?v0 S2) (?v1 S2) (?v2 S5)) (not (= (f3 (f46 f47 ?v0) ?v1) (f5 f41 ?v2)))))
(assert (forall ((?v0 S5) (?v1 S2) (?v2 S2)) (not (= (f5 f41 ?v0) (f3 (f46 f47 ?v1) ?v2)))))
(assert (forall ((?v0 S2) (?v1 S2) (?v2 S2)) (not (= (f3 f25 ?v0) (f3 (f46 f47 ?v1) ?v2)))))
(assert (forall ((?v0 S2) (?v1 S2) (?v2 S2)) (not (= (f3 (f46 f47 ?v0) ?v1) (f3 f25 ?v2)))))
(assert (forall ((?v0 S2) (?v1 S2) (?v2 S2) (?v3 S5)) (= (f5 (f6 (f13 f14 (f3 (f46 f47 ?v0) ?v1)) ?v2) ?v3) (f3 (f46 f47 (f5 (f6 (f13 f14 ?v0) ?v2) ?v3)) (f5 (f6 (f13 f14 ?v1) ?v2) ?v3)))))
(assert (forall ((?v0 S2) (?v1 S2) (?v2 S5)) (= (f5 (f6 f7 (f3 (f46 f47 ?v0) ?v1)) ?v2) (f3 (f46 f47 (f5 (f6 f7 ?v0) ?v2)) (f5 (f6 f7 ?v1) ?v2)))))
(assert (forall ((?v0 S5) (?v1 S5) (?v2 S12) (?v3 S14)) (=> (= (f49 (f50 ?v0) ?v1) f1) (= (f45 (f31 (f32 (f33 f34 ?v2) ?v1) ?v3) ?v0) (f45 ?v2 ?v0)))))
(assert (forall ((?v0 S12) (?v1 S2) (?v2 S2) (?v3 S14)) (=> (= (f21 ?v0 (f3 (f46 f47 ?v1) ?v2) ?v3) f1) (=> (forall ((?v4 S14)) (=> (= (f21 ?v0 ?v1 (f38 (f39 f40 ?v4) ?v3)) f1) (=> (= (f21 ?v0 ?v2 ?v4) f1) false))) false))))
(assert (forall ((?v0 S5)) (=> (= (f49 (f50 ?v0) f8) f1) false)))
(assert (forall ((?v0 S5)) (=> (=> (= ?v0 f8) false) (= (f49 (f50 f8) ?v0) f1))))
(assert (forall ((?v0 S5) (?v1 S5)) (=> (= (f49 (f50 ?v0) ?v1) f1) (not (= ?v1 f8)))))
(assert (forall ((?v0 S5)) (= (= (f49 (f50 ?v0) f8) f1) false)))
(assert (forall ((?v0 S5)) (= (not (= ?v0 f8)) (= (f49 (f50 f8) ?v0) f1))))
(assert (forall ((?v0 S5)) (not (= (f49 (f50 ?v0) f8) f1))))
(assert (forall ((?v0 S5)) (= (f51 f52 (f45 f48 ?v0)) f8)))
(assert (forall ((?v0 S5)) (not (= (f49 (f50 ?v0) ?v0) f1))))
(assert (forall ((?v0 S5) (?v1 S5)) (= (not (= ?v0 ?v1)) (or (= (f49 (f50 ?v0) ?v1) f1) (= (f49 (f50 ?v1) ?v0) f1)))))
(assert (forall ((?v0 S5) (?v1 S5)) (=> (not (= ?v0 ?v1)) (=> (=> (= (f49 (f50 ?v0) ?v1) f1) false) (=> (=> (= (f49 (f50 ?v1) ?v0) f1) false) false)))))
(assert (forall ((?v0 S5)) (=> (= (f49 (f50 ?v0) ?v0) f1) false)))
(assert (forall ((?v0 S5) (?v1 S5)) (=> (= (f49 (f50 ?v0) ?v1) f1) (not (= ?v1 ?v0)))))
(assert (forall ((?v0 S5) (?v1 S5)) (=> (= (f49 (f50 ?v0) ?v1) f1) (not (= ?v0 ?v1)))))
(assert (forall ((?v0 S5) (?v1 S5) (?v2 S26)) (let ((?v_0 (= (f49 (f53 ?v2 ?v1) ?v0) f1))) (=> (=> (= (f49 (f50 ?v0) ?v1) f1) ?v_0) (=> (=> (= ?v0 ?v1) ?v_0) (=> (=> (= (f49 (f50 ?v1) ?v0) f1) ?v_0) ?v_0))))))
(assert (forall ((?v0 S5)) (= (f51 f54 (f45 f48 ?v0)) f8)))
(assert (forall ((?v0 S2) (?v1 S2) (?v2 S13)) (let ((?v_0 (f57 f58 f47))) (=> (= (f15 f24 (f55 (f56 ?v_0 (f5 (f6 (f13 f14 ?v0) ?v1) f8)) ?v2)) f1) (=> (= (f15 f24 ?v1) f1) (= (f15 f24 (f55 (f56 ?v_0 (f3 (f46 f47 (f3 f25 ?v0)) ?v1)) ?v2)) f1))))))
(assert (forall ((?v0 S2) (?v1 S2)) (= (f15 (f59 f60 (f3 (f46 f47 (f3 f25 ?v0)) ?v1)) (f5 (f6 (f13 f14 ?v0) ?v1) f8)) f1)))
(assert (forall ((?v0 S14)) (=> (forall ((?v1 S5)) (=> (= ?v0 (f45 f48 ?v1)) false)) (=> (forall ((?v1 S14) (?v2 S14)) (=> (= ?v0 (f38 (f39 f40 ?v1) ?v2)) false)) false))))
(assert (forall ((?v0 S5)) (= (f61 f62 (f5 f41 ?v0)) f8)))
(assert (forall ((?v0 S2) (?v1 S2)) (= (f5 (f6 (f13 f63 ?v0) ?v1) f8) (f5 (f6 (f13 f14 ?v0) ?v1) f8))))
(assert (forall ((?v0 S2)) (=> (forall ((?v1 S5)) (=> (= ?v0 (f5 f41 ?v1)) false)) (=> (forall ((?v1 S2) (?v2 S2)) (=> (= ?v0 (f3 (f46 f47 ?v1) ?v2)) false)) (=> (forall ((?v1 S2)) (=> (= ?v0 (f3 f25 ?v1)) false)) false)))))
(assert (forall ((?v0 S2) (?v1 S2) (?v2 S2)) (=> (= (f15 (f59 f60 ?v0) ?v1) f1) (= (f15 (f59 f60 (f3 (f46 f47 ?v0) ?v2)) (f3 (f46 f47 ?v1) ?v2)) f1))))
(assert (forall ((?v0 S2) (?v1 S2) (?v2 S2)) (let ((?v_0 (f46 f47 ?v2))) (=> (= (f15 (f59 f60 ?v0) ?v1) f1) (= (f15 (f59 f60 (f3 ?v_0 ?v0)) (f3 ?v_0 ?v1)) f1)))))
(assert (forall ((?v0 S5) (?v1 S2)) (=> (= (f15 (f59 f60 (f5 f41 ?v0)) ?v1) f1) false)))
(assert (forall ((?v0 S2) (?v1 S2)) (=> (= (f15 (f59 f60 ?v0) ?v1) f1) (= (f15 (f59 f60 (f3 f25 ?v0)) (f3 f25 ?v1)) f1))))
(assert (forall ((?v0 S12) (?v1 S2) (?v2 S14) (?v3 S2)) (=> (= (f21 ?v0 ?v1 ?v2) f1) (=> (= (f15 (f59 f60 ?v1) ?v3) f1) (= (f21 ?v0 ?v3 ?v2) f1)))))
(assert (forall ((?v0 S2) (?v1 S2) (?v2 S2) (?v3 S5)) (=> (= (f15 (f59 f60 ?v0) ?v1) f1) (= (f15 (f59 f60 (f5 (f6 (f13 f14 ?v0) ?v2) ?v3)) (f5 (f6 (f13 f14 ?v1) ?v2) ?v3)) f1))))
(assert (forall ((?v0 S2) (?v1 S2) (?v2 S5)) (=> (= (f15 (f59 f60 ?v0) ?v1) f1) (= (f15 (f59 f60 (f5 (f6 f7 ?v0) ?v2)) (f5 (f6 f7 ?v1) ?v2)) f1))))
(assert (forall ((?v0 S2) (?v1 S2) (?v2 S2) (?v3 S5)) (= (f5 (f6 (f13 f63 (f3 (f46 f47 ?v0) ?v1)) ?v2) ?v3) (f3 (f46 f47 (f5 (f6 (f13 f63 ?v0) ?v2) ?v3)) (f5 (f6 (f13 f63 ?v1) ?v2) ?v3)))))
(assert (forall ((?v0 S12) (?v1 S5) (?v2 S13) (?v3 S14) (?v4 S14)) (let ((?v_0 (f55 (f56 (f57 f58 f47) (f5 f41 ?v1)) ?v2))) (=> (= (f21 ?v0 ?v_0 ?v3) f1) (=> (= (f21 ?v0 ?v_0 ?v4) f1) (= ?v3 ?v4))))))
(assert (forall ((?v0 S2) (?v1 S2)) (=> (= (f15 (f59 f60 (f3 f25 ?v0)) ?v1) f1) (=> (forall ((?v2 S2)) (=> (= ?v1 (f3 f25 ?v2)) (=> (= (f15 (f59 f60 ?v0) ?v2) f1) false))) false))))
(assert (forall ((?v0 S5) (?v1 S13) (?v2 S2) (?v3 S13)) (let ((?v_0 (f57 f58 f47))) (not (= (f55 (f56 ?v_0 (f5 f41 ?v0)) ?v1) (f55 (f56 ?v_0 (f3 f25 ?v2)) ?v3))))))
(assert (forall ((?v0 S2) (?v1 S2) (?v2 S5) (?v3 S13)) (not (= (f3 (f46 f47 (f3 f25 ?v0)) ?v1) (f55 (f56 (f57 f58 f47) (f5 f41 ?v2)) ?v3)))))
(assert (forall ((?v0 S2) (?v1 S13) (?v2 S2) (?v3 S13)) (let ((?v_0 (f57 f58 f47))) (= (= (f55 (f56 ?v_0 (f3 f25 ?v0)) ?v1) (f55 (f56 ?v_0 (f3 f25 ?v2)) ?v3)) (and (= ?v0 ?v2) (= ?v1 ?v3))))))
(assert (forall ((?v0 S5) (?v1 S13) (?v2 S5) (?v3 S13)) (let ((?v_0 (f57 f58 f47))) (= (= (f55 (f56 ?v_0 (f5 f41 ?v0)) ?v1) (f55 (f56 ?v_0 (f5 f41 ?v2)) ?v3)) (and (= ?v0 ?v2) (= ?v1 ?v3))))))
(assert (forall ((?v0 S2) (?v1 S2) (?v2 S13)) (let ((?v_0 (f57 f58 f47))) (=> (= (f15 (f59 f60 ?v0) ?v1) f1) (= (f15 (f59 f60 (f55 (f56 ?v_0 ?v0) ?v2)) (f55 (f56 ?v_0 ?v1) ?v2)) f1)))))
(assert (forall ((?v0 S2) (?v1 S13) (?v2 S2)) (let ((?v_0 (f57 f58 f47))) (= (= (f55 (f56 ?v_0 ?v0) ?v1) (f55 (f56 ?v_0 ?v2) ?v1)) (= ?v0 ?v2)))))
(assert (forall ((?v0 S2) (?v1 S2) (?v2 S2)) (=> (= (f15 (f59 f60 (f3 (f46 f47 ?v0) ?v1)) ?v2) f1) (=> (forall ((?v3 S2)) (=> (= ?v2 (f5 (f6 (f13 f14 ?v3) ?v1) f8)) (=> (= ?v0 (f3 f25 ?v3)) false))) (=> (forall ((?v3 S2)) (=> (= ?v2 (f3 (f46 f47 ?v3) ?v1)) (=> (= (f15 (f59 f60 ?v0) ?v3) f1) false))) (=> (forall ((?v3 S2)) (=> (= ?v2 (f3 (f46 f47 ?v0) ?v3)) (=> (= (f15 (f59 f60 ?v1) ?v3) f1) false))) false))))))
(assert (forall ((?v0 S13) (?v1 S5)) (=> (= (f64 f24 ?v0) f1) (= (f15 f24 (f55 (f56 (f57 f58 f47) (f5 f41 ?v1)) ?v0)) f1))))
(assert (forall ((?v0 S2) (?v1 S2) (?v2 S5)) (= (f5 (f6 (f13 f63 ?v0) ?v1) ?v2) (f5 (f6 (f13 f14 ?v0) (f5 (f6 (f65 f66 ?v2) ?v1) f8)) ?v2))))
(assert (forall ((?v0 S2)) (= (= (f15 f24 ?v0) f1) (or (exists ((?v1 S13) (?v2 S5)) (and (= ?v0 (f55 (f56 (f57 f58 f47) (f5 f41 ?v2)) ?v1)) (= (f64 f24 ?v1) f1))) (or (exists ((?v1 S2)) (and (= ?v0 (f3 f25 ?v1)) (= (f15 f24 ?v1) f1))) (exists ((?v1 S2) (?v2 S2) (?v3 S13)) (let ((?v_0 (f57 f58 f47))) (and (= ?v0 (f55 (f56 ?v_0 (f3 (f46 f47 (f3 f25 ?v1)) ?v2)) ?v3)) (and (= (f15 f24 (f55 (f56 ?v_0 (f5 (f6 (f13 f14 ?v1) ?v2) f8)) ?v3)) f1) (= (f15 f24 ?v2) f1))))))))))
(assert (forall ((?v0 S13) (?v1 S13) (?v2 S2)) (let ((?v_0 (f56 (f57 f58 f47) ?v2))) (=> (= (f67 f60 ?v0 ?v1) f1) (= (f15 (f59 f60 (f55 ?v_0 ?v0)) (f55 ?v_0 ?v1)) f1)))))
(assert (forall ((?v0 S2) (?v1 S5)) (= (f5 (f6 (f65 f66 f8) ?v0) ?v1) ?v0)))
(assert (forall ((?v0 S5) (?v1 S2) (?v2 S2) (?v3 S5)) (let ((?v_0 (f65 f66 ?v0))) (= (f5 (f6 ?v_0 (f3 (f46 f47 ?v1) ?v2)) ?v3) (f3 (f46 f47 (f5 (f6 ?v_0 ?v1) ?v3)) (f5 (f6 ?v_0 ?v2) ?v3))))))
(assert (forall ((?v0 S5) (?v1 S13) (?v2 S2)) (=> (= (f15 (f59 f60 (f55 (f56 (f57 f58 f47) (f5 f41 ?v0)) ?v1)) ?v2) f1) (exists ((?v3 S13)) (and (= (f67 f60 ?v1 ?v3) f1) (= ?v2 (f55 (f56 (f57 f58 f47) (f5 f41 ?v0)) ?v3)))))))
(assert (forall ((?v0 S10) (?v1 S10) (?v2 S13)) (= (= (f64 (f16 (f17 ?v0) ?v1) ?v2) f1) (and (= (f64 ?v0 ?v2) f1) (= (f64 ?v1 ?v2) f1)))))
(assert (forall ((?v0 S2) (?v1 S13) (?v2 S2)) (=> (= (f15 (f59 f60 (f55 (f56 (f57 f58 f47) ?v0) ?v1)) ?v2) f1) (=> (forall ((?v3 S2)) (=> (= (f15 (f59 f60 ?v0) ?v3) f1) (=> (= ?v2 (f55 (f56 (f57 f58 f47) ?v3) ?v1)) false))) (=> (forall ((?v3 S13)) (=> (= (f67 f60 ?v1 ?v3) f1) (=> (= ?v2 (f55 (f56 (f57 f58 f47) ?v0) ?v3)) false))) (=> (forall ((?v3 S2) (?v4 S2) (?v5 S13)) (=> (= ?v0 (f3 f25 ?v3)) (=> (= ?v1 (f68 (f69 f70 ?v4) ?v5)) (=> (= ?v2 (f55 (f56 (f57 f58 f47) (f5 (f6 (f13 f14 ?v3) ?v4) f8)) ?v5)) false)))) false))))))
(assert (forall ((?v0 S13)) (=> (= (f64 f24 ?v0) f1) (= (f64 f24 (f68 (f71 f72 f4) ?v0)) f1))))
(assert (forall ((?v0 S2)) (exists ((?v1 S13) (?v2 S2)) (and (= ?v0 (f55 (f56 (f57 f58 f47) ?v2) ?v1)) (or (exists ((?v3 S5)) (= ?v2 (f5 f41 ?v3))) (exists ((?v3 S2)) (= ?v2 (f3 f25 ?v3))))))))
(assert (forall ((?v0 S23) (?v1 S2) (?v2 S2) (?v3 S13)) (let ((?v_0 (f57 f58 ?v0))) (= (f55 (f56 ?v_0 ?v1) (f68 (f69 f70 ?v2) ?v3)) (f55 (f56 ?v_0 (f3 (f46 ?v0 ?v1) ?v2)) ?v3)))))
(assert (forall ((?v0 S36) (?v1 S37)) (not (= ?v0 (f73 (f74 f75 ?v1) ?v0)))))
(assert (forall ((?v0 S37) (?v1 S40)) (not (= ?v0 (f76 (f77 f78 ?v1) ?v0)))))
(assert (forall ((?v0 S13) (?v1 S2)) (not (= ?v0 (f68 (f69 f70 ?v1) ?v0)))))
(assert (forall ((?v0 S37) (?v1 S36)) (not (= (f73 (f74 f75 ?v0) ?v1) ?v1))))
(assert (forall ((?v0 S40) (?v1 S37)) (not (= (f76 (f77 f78 ?v0) ?v1) ?v1))))
(assert (forall ((?v0 S2) (?v1 S13)) (not (= (f68 (f69 f70 ?v0) ?v1) ?v1))))
(assert (forall ((?v0 S3) (?v1 S2) (?v2 S13)) (let ((?v_0 (f71 f72 ?v0))) (= (f68 ?v_0 (f68 (f69 f70 ?v1) ?v2)) (f68 (f69 f70 (f3 ?v0 ?v1)) (f68 ?v_0 ?v2))))))
(assert (forall ((?v0 S37) (?v1 S36) (?v2 S37) (?v3 S36)) (= (= (f73 (f74 f75 ?v0) ?v1) (f73 (f74 f75 ?v2) ?v3)) (and (= ?v0 ?v2) (= ?v1 ?v3)))))
(assert (forall ((?v0 S40) (?v1 S37) (?v2 S40) (?v3 S37)) (= (= (f76 (f77 f78 ?v0) ?v1) (f76 (f77 f78 ?v2) ?v3)) (and (= ?v0 ?v2) (= ?v1 ?v3)))))
(assert (forall ((?v0 S2) (?v1 S13) (?v2 S2) (?v3 S13)) (= (= (f68 (f69 f70 ?v0) ?v1) (f68 (f69 f70 ?v2) ?v3)) (and (= ?v0 ?v2) (= ?v1 ?v3)))))
(assert (forall ((?v0 S13)) (= (f68 (f71 f72 f23) ?v0) ?v0)))
(assert (forall ((?v0 S2) (?v1 S13) (?v2 S2) (?v3 S5)) (let ((?v_0 (f57 f58 f47))) (= (f5 (f6 (f13 f14 (f55 (f56 ?v_0 ?v0) ?v1)) ?v2) ?v3) (f55 (f56 ?v_0 (f5 (f6 (f13 f14 ?v0) ?v2) ?v3)) (f68 (f71 f72 (f9 (f11 f12 ?v2) ?v3)) ?v1))))))
(assert (forall ((?v0 S2) (?v1 S13) (?v2 S5)) (let ((?v_0 (f57 f58 f47))) (= (f5 (f6 f7 (f55 (f56 ?v_0 ?v0) ?v1)) ?v2) (f55 (f56 ?v_0 (f5 (f6 f7 ?v0) ?v2)) (f68 (f71 f72 (f9 f10 ?v2)) ?v1))))))
(assert (forall ((?v0 S2) (?v1 S13) (?v2 S3) (?v3 S13)) (= (= (f68 (f69 f70 ?v0) ?v1) (f68 (f71 f72 ?v2) ?v3)) (exists ((?v4 S2) (?v5 S13)) (and (= ?v3 (f68 (f69 f70 ?v4) ?v5)) (and (= ?v0 (f3 ?v2 ?v4)) (= ?v1 (f68 (f71 f72 ?v2) ?v5))))))))
(assert (forall ((?v0 S3) (?v1 S13) (?v2 S2) (?v3 S13)) (= (= (f68 (f71 f72 ?v0) ?v1) (f68 (f69 f70 ?v2) ?v3)) (exists ((?v4 S2) (?v5 S13)) (and (= ?v1 (f68 (f69 f70 ?v4) ?v5)) (and (= (f3 ?v0 ?v4) ?v2) (= (f68 (f71 f72 ?v0) ?v5) ?v3)))))))
(assert (forall ((?v0 S43) (?v1 S37) (?v2 S36) (?v3 S37) (?v4 S36)) (= (= (f79 ?v0 (f73 (f74 f75 ?v1) ?v2) (f73 (f74 f75 ?v3) ?v4)) f1) (or (and (= (f80 (f81 ?v0 ?v1) ?v3) f1) (= ?v4 ?v2)) (and (= ?v3 ?v1) (= (f79 ?v0 ?v2 ?v4) f1))))))
(assert (forall ((?v0 S45) (?v1 S40) (?v2 S37) (?v3 S40) (?v4 S37)) (= (= (f80 (f82 ?v0 (f76 (f77 f78 ?v1) ?v2)) (f76 (f77 f78 ?v3) ?v4)) f1) (or (and (= (f83 (f84 ?v0 ?v1) ?v3) f1) (= ?v4 ?v2)) (and (= ?v3 ?v1) (= (f80 (f82 ?v0 ?v2) ?v4) f1))))))
(assert (forall ((?v0 S30) (?v1 S2) (?v2 S13) (?v3 S2) (?v4 S13)) (= (= (f67 ?v0 (f68 (f69 f70 ?v1) ?v2) (f68 (f69 f70 ?v3) ?v4)) f1) (or (and (= (f15 (f59 ?v0 ?v1) ?v3) f1) (= ?v4 ?v2)) (and (= ?v3 ?v1) (= (f67 ?v0 ?v2 ?v4) f1))))))
(assert (forall ((?v0 S12) (?v1 S2) (?v2 S14) (?v3 S5) (?v4 S13) (?v5 S15)) (=> (= (f21 ?v0 ?v1 ?v2) f1) (=> (= (f22 (f31 (f32 (f33 f34 ?v0) ?v3) ?v2) ?v4 ?v5) f1) (= (f22 ?v0 (f68 (f71 f72 (f9 (f11 f12 ?v1) ?v3)) ?v4) ?v5) f1)))))
(assert (forall ((?v0 S12) (?v1 S13) (?v2 S15) (?v3 S5) (?v4 S14)) (=> (= (f22 ?v0 ?v1 ?v2) f1) (= (f22 (f31 (f32 (f33 f34 ?v0) ?v3) ?v4) (f68 (f71 f72 (f9 f10 ?v3)) ?v1) ?v2) f1))))
(assert (forall ((?v0 S12) (?v1 S2) (?v2 S13) (?v3 S15)) (= (= (f22 ?v0 (f68 (f69 f70 ?v1) ?v2) ?v3) f1) (= (f85 f2 (f20 ?v0 ?v1 ?v2) ?v3) f1))))
(assert (forall ((?v0 S12) (?v1 S2) (?v2 S15) (?v3 S14) (?v4 S13)) (=> (= (f21 ?v0 ?v1 (f38 (f86 (f87 f88 f40) ?v2) ?v3)) f1) (=> (= (f22 ?v0 ?v4 ?v2) f1) (= (f21 ?v0 (f55 (f56 (f57 f58 f47) ?v1) ?v4) ?v3) f1)))))
(assert (forall ((?v0 S12) (?v1 S5) (?v2 S13) (?v3 S13) (?v4 S14) (?v5 S15) (?v6 S14)) (let ((?v_0 (f57 f58 f47))) (let ((?v_1 (f55 (f56 ?v_0 (f5 f41 ?v1)) ?v2))) (=> (= (f21 ?v0 (f55 (f56 ?v_0 ?v_1) ?v3) ?v4) f1) (=> (= (f22 ?v0 ?v2 ?v5) f1) (=> (= (f21 ?v0 ?v_1 ?v6) f1) (exists ((?v7 S15)) (and (= ?v6 (f38 (f86 (f87 f88 f40) ?v7) ?v4)) (= (f22 ?v0 ?v3 ?v7) f1))))))))))
(assert (forall ((?v0 S12) (?v1 S5) (?v2 S13) (?v3 S14)) (=> (= (f21 ?v0 (f55 (f56 (f57 f58 f47) (f5 f41 ?v1)) ?v2) ?v3) f1) (=> (forall ((?v4 S15)) (=> (= (f21 ?v0 (f5 f41 ?v1) (f38 (f86 (f87 f88 f40) ?v4) ?v3)) f1) (=> (= (f22 ?v0 ?v2 ?v4) f1) false))) false))))
(check-sat)
(exit)
